qbf_easy_train/easy_5366_SAT.qdimacs
p cnf 26 70
a 1 9 6 0
e 2 3 4 5 7 8 10 11 12 13 14 15 16 17 18 19 20 21 22 23 24 25 26 0
-1 2 -3 0
1 -2 -3 0
-1 -2 3 0
1 2 3 0
-7 -5 0
-7 -6 0
5 6 7 0
8 -7 0
8 4 0
7 -4 -8 0
-8 9 -10 0
8 -9 -10 0
-8 -9 10 0
8 9 10 0
-11 -4 0
-11 -10 0
4 10 11 0
12 3 0
12 -11 0
-3 11 -12 0
8 -6 -14 0
-8 6 -14 0
8 6 14 0
-8 -6 14 0
15 14 0
15 2 0
-14 -2 -15 0
13 15 -16 0
-13 -15 -16 0
13 -15 16 0
-13 15 16 0
12 -16 -17 0
-12 16 -17 0
12 16 17 0
-12 -16 17 0
18 -14 0
18 -6 0
14 6 -18 0
-8 -18 -19 0
8 18 -19 0
-8 18 19 0
8 -18 19 0
20 17 0
20 19 0
-17 -19 -20 0
4 7 -21 0
-4 -7 -21 0
4 -7 21 0
-4 7 21 0
22 -20 0
22 -21 0
20 21 -22 0
-23 -8 -24 0
23 8 -24 0
-23 8 24 0
23 -8 24 0
-24 5 -25 0
24 -5 -25 0
-24 -5 25 0
24 5 25 0
26 22 0
26 -25 0
-22 25 -26 0
1 -4 15 0
2 -12 8 0
-1 5 3 11 -12 -18 0
24 -10 0
-3 15 12 -11 0
23 2 -1 14 9 0
26 0
