sat_easy_train/easy_5366_SAT.dimacs
p cnf 127 423
-4 2 0
-4 3 0
-2 -3 4 0
1 -4 -5 0
-1 4 -5 0
1 4 5 0
-1 -4 5 0
7 4 0
7 -6 0
-4 6 -7 0
8 5 0
8 7 0
-5 -7 -8 0
11 -9 0
11 -10 0
9 10 -11 0
11 -9 -12 0
-11 9 -12 0
11 9 12 0
-11 -9 12 0
15 13 0
15 -14 0
-13 14 -15 0
-17 15 0
-17 -16 0
-15 16 17 0
-12 17 -18 0
12 -17 -18 0
-12 -17 18 0
12 17 18 0
20 -19 0
20 -3 0
19 3 -20 0
-21 2 0
-21 -20 0
-2 20 21 0
22 15 0
22 21 0
-15 -21 -22 0
23 -16 0
23 22 0
16 -22 -23 0
18 23 -24 0
-18 -23 -24 0
18 -23 24 0
-18 23 24 0
-25 -8 0
-25 -24 0
8 24 25 0
-26 -2 0
-26 -13 0
2 13 26 0
27 -10 0
27 26 0
10 -26 -27 0
25 -27 -28 0
-25 27 -28 0
25 27 28 0
-25 -27 28 0
29 -9 0
29 14 0
9 -14 -29 0
30 -29 0
30 -20 0
29 20 -30 0
-11 30 -31 0
11 -30 -31 0
-11 -30 31 0
11 30 31 0
29 31 -32 0
-29 -31 -32 0
29 -31 32 0
-29 31 32 0
34 33 0
34 -10 0
-33 10 -34 0
-35 12 0
-35 -34 0
-12 34 35 0
-36 -32 0
-36 35 0
32 -35 36 0
9 -14 -37 0
-9 14 -37 0
9 14 37 0
-9 -14 37 0
-38 7 0
-38 4 0
-7 -4 38 0
-39 37 0
-39 -38 0
-37 38 39 0
-40 39 0
-40 31 0
-39 -31 40 0
41 6 0
41 1 0
-6 -1 -41 0
4 42 0
-4 42 0
-7 -43 0
7 -43 0
-44 42 0
-44 -43 0
-42 43 44 0
45 -44 0
45 44 0
46 -41 0
46 -45 0
41 45 -46 0
47 -40 0
47 46 0
40 -46 -47 0
48 -36 0
48 47 0
36 -47 -48 0
-49 -28 0
-49 -48 0
28 48 49 0
-21 13 -50 0
21 -13 -50 0
-21 -13 50 0
21 13 50 0
51 1 0
51 9 0
-1 -9 -51 0
53 -51 0
53 -52 0
51 52 -53 0
-54 12 0
-54 -12 0
-53 -54 -55 0
53 54 -55 0
-53 54 55 0
53 -54 55 0
52 29 -56 0
-52 -29 -56 0
52 -29 56 0
-52 29 56 0
-57 -52 0
-57 29 0
52 -29 57 0
-58 56 0
-58 57 0
-56 -57 58 0
-60 58 0
-60 -59 0
-58 59 60 0
55 -60 -61 0
-55 60 -61 0
55 60 61 0
-55 -60 61 0
-62 6 -63 0
62 -6 -63 0
-62 -6 63 0
62 6 63 0
64 45 0
64 31 0
-45 -31 -64 0
-65 64 0
-65 11 0
-64 -11 65 0
66 65 0
66 -7 0
-65 7 -66 0
-66 -30 -67 0
66 30 -67 0
-66 30 67 0
66 -30 67 0
-68 63 0
-68 -67 0
-63 67 68 0
-69 -61 0
-69 68 0
61 -68 69 0
70 50 0
70 69 0
-50 -69 -70 0
71 -43 0
71 -10 0
43 10 -71 0
72 -16 0
72 -6 0
16 6 -72 0
-3 -42 -73 0
3 42 -73 0
-3 42 73 0
3 -42 73 0
-74 -72 0
-74 -73 0
72 73 74 0
-5 10 -75 0
5 -10 -75 0
-5 -10 75 0
5 10 75 0
76 34 0
76 75 0
-34 -75 -76 0
-77 -76 0
-77 6 0
76 -6 77 0
74 -77 -78 0
-74 77 -78 0
74 77 78 0
-74 -77 78 0
-71 -78 -79 0
71 78 -79 0
-71 78 79 0
71 -78 79 0
80 51 0
80 -18 0
-51 18 -80 0
22 -80 -81 0
-22 80 -81 0
22 80 81 0
-22 -80 81 0
-82 -81 0
-82 -22 0
81 22 82 0
79 82 -83 0
-79 -82 -83 0
79 -82 83 0
-79 82 83 0
84 -72 -85 0
-84 72 -85 0
84 72 85 0
-84 -72 85 0
-9 56 -86 0
9 -56 -86 0
-9 -56 86 0
9 56 86 0
-39 14 -87 0
39 -14 -87 0
-39 -14 87 0
39 14 87 0
-88 86 0
-88 -87 0
-86 87 88 0
-89 -85 0
-89 88 0
85 -88 89 0
83 89 -90 0
-83 -89 -90 0
83 -89 90 0
-83 89 90 0
11 -6 -91 0
-11 6 -91 0
11 6 91 0
-11 -6 91 0
92 -33 0
92 -14 0
33 14 -92 0
-94 92 0
-94 93 0
-92 -93 94 0
-95 -94 0
-95 92 0
94 -92 95 0
-96 91 0
-96 -95 0
-91 95 96 0
-97 14 0
-97 -37 0
-14 37 97 0
-98 -20 0
-98 97 0
20 -97 98 0
99 12 0
99 -31 0
-12 31 -99 0
100 58 0
100 99 0
-58 -99 -100 0
-101 -98 0
-101 100 0
98 -100 101 0
-102 96 0
-102 101 0
-96 -101 102 0
-90 -102 -103 0
90 102 -103 0
-90 102 103 0
90 -102 103 0
-70 -103 -104 0
70 103 -104 0
-70 103 104 0
70 -103 104 0
84 30 -105 0
-84 -30 -105 0
84 -30 105 0
-84 30 105 0
-106 -42 0
-106 105 0
42 -105 106 0
43 -106 -107 0
-43 106 -107 0
43 106 107 0
-43 -106 107 0
-108 -44 0
-108 -13 0
44 13 108 0
-109 22 0
-109 -108 0
-22 108 109 0
-110 109 0
-110 -13 0
-109 13 110 0
-110 93 -111 0
110 -93 -111 0
-110 -93 111 0
110 93 111 0
111 38 -112 0
-111 -38 -112 0
111 -38 112 0
-111 38 112 0
-113 3 0
-113 12 0
-3 -12 113 0
-114 112 0
-114 -113 0
-112 113 114 0
-107 -114 -115 0
107 114 -115 0
-107 114 115 0
107 -114 115 0
116 43 0
116 4 0
-43 -4 -116 0
117 84 0
117 -19 0
-84 19 -117 0
116 117 -118 0
-116 -117 -118 0
116 -117 118 0
-116 117 118 0
9 -12 -119 0
-9 12 -119 0
9 12 119 0
-9 -12 119 0
80 -31 -120 0
-80 31 -120 0
80 31 120 0
-80 -31 120 0
119 120 -121 0
-119 -120 -121 0
119 -120 121 0
-119 120 121 0
-7 30 -122 0
7 -30 -122 0
-7 -30 122 0
7 30 122 0
-123 121 0
-123 122 0
-121 -122 123 0
-118 123 -124 0
118 -123 -124 0
-118 -123 124 0
118 123 124 0
125 -115 0
125 124 0
115 -124 -125 0
126 104 0
126 -125 0
-104 125 -126 0
127 49 0
127 126 0
-49 -126 -127 0
55 40 -62 0
60 -40 0
-111 78 -94 104 -51 0
-46 40 -68 95 -84 63 0
55 74 0
-102 68 0
-32 -25 24 -53 17 0
35 -16 -120 51 0
-94 -43 36 -98 -17 -69 0
-68 -112 36 0
88 -30 -89 -26 -49 0
-33 84 -28 -47 0
24 1 94 0
-2 -78 -70 -66 0
126 -74 -21 0
20 -59 -103 -95 0
-57 52 103 116 -75 -113 0
96 -53 0
34 -66 -63 -122 109 84 0
53 -56 -103 37 0
-71 -39 0
-74 -84 0
117 -94 96 0
-49 121 -68 36 -90 114 0
-118 -14 0
-68 110 -16 -95 103 0
91 -26 28 69 0
-47 21 0
-126 -26 -108 -28 69 0
-80 42 79 73 0
81 39 -32 -23 91 0
-25 95 80 59 44 0
42 -62 0
89 -118 -109 -84 0
64 17 -68 -37 -52 0
71 53 43 67 4 0
-24 -110 75 -17 0
-95 -32 -36 -28 0
41 -126 0
-78 -125 75 -65 -118 -114 0
-127 -119 30 -61 -74 0
-98 -112 0
-72 64 0
82 24 125 0
-25 -123 0
-67 75 -3 0
-102 -53 -47 -75 -104 0
-111 84 -73 42 0
-79 -9 -49 12 -65 -21 0
84 2 -27 18 0
40 -70 -113 39 0
101 114 54 0
-87 27 83 0
-127 10 110 33 117 12 0
-7 80 0
127 0
